(set-info :source |printed by MathSAT|)
(declare-fun a () Bool)
(declare-fun call_bool6.c () Bool)
(declare-fun call_bool6.b () Bool)
(declare-fun call_int6I.time () Int)
(declare-fun call_bool6.flby2 () Bool)
(declare-fun call_int6I.out () Bool)
(declare-fun call_bool6.flby () Bool)
(declare-fun call_int6I.flby () Int)
(declare-fun call_bool6.flby3 () Bool)
(declare-fun b () Bool)
(declare-fun _OK_ () Bool)
(declare-fun call_bool6.a () Bool)
(declare-fun call_bool6.out () Bool)
(define-fun .def_154 () Bool (not call_bool6.flby3))
(define-fun .def_152 () Bool (not call_bool6.flby2))
(define-fun .def_150 () Bool (not call_bool6.flby))
(define-fun .def_149 () Bool (= call_int6I.flby 0))
(define-fun .def_151 () Bool (and .def_149 .def_150))
(define-fun .def_153 () Bool (and .def_151 .def_152))
(define-fun .def_155 () Bool (and .def_153 .def_154))
(define-fun .def_147 () Bool (= call_bool6.c call_bool6.flby3))
(define-fun .def_144 () Bool (= call_bool6.b call_bool6.flby2))
(define-fun .def_140 () Bool (= call_bool6.a call_bool6.flby))
(define-fun .def_136 () Bool (and call_bool6.a call_bool6.c))
(define-fun .def_137 () Bool (= call_bool6.out .def_136))
(define-fun .def_132 () Bool (= call_int6I.time call_int6I.flby))
(define-fun .def_128 () Bool (= call_int6I.time 5))
(define-fun .def_129 () Bool (= call_int6I.out .def_128))
(define-fun .def_125 () Bool (= b call_bool6.out))
(define-fun .def_122 () Bool (= a call_int6I.out))
(define-fun .def_119 () Bool (= a b))
(define-fun .def_120 () Bool (= _OK_ .def_119))
(define-fun .def_123 () Bool (and .def_120 .def_122))
(define-fun .def_126 () Bool (and .def_123 .def_125))
(define-fun .def_130 () Bool (and .def_126 .def_129))
(define-fun .def_133 () Bool (and .def_130 .def_132))
(define-fun .def_138 () Bool (and .def_133 .def_137))
(define-fun .def_141 () Bool (and .def_138 .def_140))
(define-fun .def_145 () Bool (and .def_141 .def_144))
(define-fun .def_148 () Bool (and .def_145 .def_147))
(define-fun .def_156 () Bool (and .def_148 .def_155))
(assert .def_156)
